(declare-fun c_ack!39 () (_ BitVec 64))
(declare-fun a_ack!40 () (_ BitVec 32))
(declare-fun b_ack!38 () (_ BitVec 32))
(assert (not (fp.gt (fp.abs ((_ to_fp 11 53) c_ack!39))
            ((_ to_fp 11 53) #x40862642fefa39ef))))
(assert (not (bvslt b_ack!38 a_ack!40)))
(assert (not (bvslt a_ack!40 #x00000000)))
(assert (fp.eq ((_ to_fp 11 53) c_ack!39) ((_ to_fp 11 53) #x0000000000000000)))
(assert (bvsle #x00000000 (bvsub b_ack!38 a_ack!40)))
(assert (bvsle #x00000001 (bvsub b_ack!38 a_ack!40)))

(check-sat)
(exit)
